# Solution for model r10_t18_m7_6 Batch Number: 1
# Finished Task: 18 / 18
# Makespan: 715.0, Total Distance: 260.0, Total Time: 3.8015
# R O S F Batch
0 0 24 0.0 0.0 -1
1 1 10 0.0 0.0 -1
2 2 11 0.0 0.0 -1
3 3 26 0.0 0.0 -1
4 4 17 0.0 0.0 -1
5 5 -1 0.0 0.0 -1
6 6 12 0.0 0.0 -1
7 7 27 0.0 0.0 -1
8 8 20 0.0 0.0 -1
9 9 18 0.0 0.0 -1
10 1 -1 693.0 715.0 0
11 2 19 629.0 662.0 0
12 6 13 174.0 199.0 0
13 6 16 487.0 515.0 0
14 6 21 561.0 590.0 0
15 0 -1 629.0 668.0 0
16 6 14 533.0 561.0 0
17 4 -1 676.0 715.0 0
18 9 -1 515.0 544.0 0
19 2 -1 669.0 693.0 0
20 8 -1 590.0 629.0 0
21 6 -1 599.0 629.0 0
22 7 25 537.0 572.0 0
23 3 -1 532.0 555.0 0
24 0 15 319.0 354.0 0
25 7 -1 580.0 612.0 0
26 3 23 454.0 487.0 0
27 7 22 365.0 397.0 0
